\* Knapsack_Problem *\
Maximize
Total_Value: 64 x_0 + 14 x_1 + 13 x_2 + 21 x_3 + 37 x_4 + 39 x_5 + 74 x_6
 + 87 x_7 + 13 x_8 + 81 x_9
Subject To
Capacity_Constraint: 4 x_0 + x_1 + 9 x_2 + 8 x_3 + 8 x_4 + 5 x_5 + 4 x_6
 + 18 x_7 + 3 x_8 + 19 x_9 <= 50
Binaries
x_0
x_1
x_2
x_3
x_4
x_5
x_6
x_7
x_8
x_9
End
